c A SAT instance generated from a 3-CNF formula that had 91 clauses and 20 variables
p cnf 20 91
9 -3 16 1 5 0
4 -16 0
-4 6 5 7 0
-6 -5 4 8 4 2 5 0
-6 -12 -13 7 3 6 9 3 5 2 9 2 1 2 5 0
-13 0
p cnf 20 91
-4 -20 -6 0
7 -6 20 0
-17 2 -3 0
-8 -9 -11 0
-11 14 2 0
20 -15 -10 0
19 -20 15 0